02_FORMAL/tv/RIINA/Domains/VerifiedNetwork.tv.smt2
; Copyright (c) 2026 The RIINA Authors. All rights reserved.
; Auto-generated from 02_FORMAL/coq/domains/VerifiedNetwork.v (25 validations)
; Generated by scripts/generate-full-stack.py
;
; Translation Validation for VerifiedNetwork
; Layer 9: Verifies compiler backend preserves formal semantics.
; Each assertion checks source IR ≡ target code for a proven property.

(set-logic QF_LIA)
(set-option :produce-models true)

; IR node representation
(declare-sort IRNode 0)
(declare-sort TargetNode 0)

; is_strong_cipher: source semantics (matches Coq)
(declare-fun source_is_strong_cipher () Bool)
(declare-fun target_is_strong_cipher () Bool)
(assert (= source_is_strong_cipher target_is_strong_cipher))

; tls_connected: source semantics (matches Coq)
(declare-fun source_tls_connected () Bool)
(declare-fun target_tls_connected () Bool)
(assert (= source_tls_connected target_tls_connected))

; valid_cert_chain: source semantics (matches Coq)
(declare-fun source_valid_cert_chain () Bool)
(declare-fun target_valid_cert_chain () Bool)
(assert (= source_valid_cert_chain target_valid_cert_chain))

; key_derivation_correct: source semantics (matches Coq)
(declare-fun source_key_derivation_correct () Bool)
(declare-fun target_key_derivation_correct () Bool)
(assert (= source_key_derivation_correct target_key_derivation_correct))

; channel_binding_holds: source semantics (matches Coq)
(declare-fun source_channel_binding_holds () Bool)
(declare-fun target_channel_binding_holds () Bool)
(assert (= source_channel_binding_holds target_channel_binding_holds))

; valid_transition: source semantics (matches Coq)
(declare-fun source_valid_transition () Bool)
(declare-fun target_valid_transition () Bool)
(assert (= source_valid_transition target_valid_transition))

; seq_unpredictable: source semantics (matches Coq)
(declare-fun source_seq_unpredictable () Bool)
(declare-fun target_seq_unpredictable () Bool)
(assert (= source_seq_unpredictable target_seq_unpredictable))

; injection_detectable: source semantics (matches Coq)
(declare-fun source_injection_detectable () Bool)
(declare-fun target_injection_detectable () Bool)
(assert (= source_injection_detectable target_injection_detectable))

; flow_control_correct: source semantics (matches Coq)
(declare-fun source_flow_control_correct () Bool)
(declare-fun target_flow_control_correct () Bool)
(assert (= source_flow_control_correct target_flow_control_correct))

; frag_reassembly_safe: source semantics (matches Coq)
(declare-fun source_frag_reassembly_safe () Bool)
(declare-fun target_frag_reassembly_safe () Bool)
(assert (= source_frag_reassembly_safe target_frag_reassembly_safe))

; no_overlapping_frags: source semantics (matches Coq)
(declare-fun source_no_overlapping_frags () Bool)
(declare-fun target_no_overlapping_frags () Bool)
(assert (= source_no_overlapping_frags target_no_overlapping_frags))

; icmp_rate_bounded: source semantics (matches Coq)
(declare-fun source_icmp_rate_bounded () Bool)
(declare-fun target_icmp_rate_bounded () Bool)
(assert (= source_icmp_rate_bounded target_icmp_rate_bounded))

; routing_correct: source semantics (matches Coq)
(declare-fun source_routing_correct () Bool)
(declare-fun target_routing_correct () Bool)
(assert (= source_routing_correct target_routing_correct))

; dnssec_validated: source semantics (matches Coq)
(declare-fun source_dnssec_validated () Bool)
(declare-fun target_dnssec_validated () Bool)
(assert (= source_dnssec_validated target_dnssec_validated))

; authentic: source semantics (matches Coq)
(declare-fun source_authentic () Bool)
(declare-fun target_authentic () Bool)
(assert (= source_authentic target_authentic))

; cache_safe: source semantics (matches Coq)
(declare-fun source_cache_safe () Bool)
(declare-fun target_cache_safe () Bool)
(assert (= source_cache_safe target_cache_safe))

; rebinding_prevented: source semantics (matches Coq)
(declare-fun source_rebinding_prevented () Bool)
(declare-fun target_rebinding_prevented () Bool)
(assert (= source_rebinding_prevented target_rebinding_prevented))

; query_has_integrity: source semantics (matches Coq)
(declare-fun source_query_has_integrity () Bool)
(declare-fun target_query_has_integrity () Bool)
(assert (= source_query_has_integrity target_query_has_integrity))

; amplification_bounded: source semantics (matches Coq)
(declare-fun source_amplification_bounded () Bool)
(declare-fun target_amplification_bounded () Bool)
(assert (= source_amplification_bounded target_amplification_bounded))

; doh_confidential: source semantics (matches Coq)
(declare-fun source_doh_confidential () Bool)
(declare-fun target_doh_confidential () Bool)
(assert (= source_doh_confidential target_doh_confidential))

; NET_001_01_tls_handshake_auth: translation preserves property (matches Coq: Theorem)
(declare-fun source_NET_001_01_tls_handshake_auth () Bool)
(declare-fun target_NET_001_01_tls_handshake_auth () Bool)
(assert (= source_NET_001_01_tls_handshake_auth target_NET_001_01_tls_handshake_auth))

; NET_001_02_tls_forward_secrecy: translation preserves property (matches Coq: Theorem)
(declare-fun source_NET_001_02_tls_forward_secrecy () Bool)
(declare-fun target_NET_001_02_tls_forward_secrecy () Bool)
(assert (= source_NET_001_02_tls_forward_secrecy target_NET_001_02_tls_forward_secrecy))

; NET_001_03_tls_no_downgrade: translation preserves property (matches Coq: Theorem)
(declare-fun source_NET_001_03_tls_no_downgrade () Bool)
(declare-fun target_NET_001_03_tls_no_downgrade () Bool)
(assert (= source_NET_001_03_tls_no_downgrade target_NET_001_03_tls_no_downgrade))

; NET_001_04_tls_key_derivation: translation preserves property (matches Coq: Theorem)
(declare-fun source_NET_001_04_tls_key_derivation () Bool)
(declare-fun target_NET_001_04_tls_key_derivation () Bool)
(assert (= source_NET_001_04_tls_key_derivation target_NET_001_04_tls_key_derivation))

; NET_001_05_tls_transcript_binding: translation preserves property (matches Coq: Theorem)
(declare-fun source_NET_001_05_tls_transcript_binding () Bool)
(declare-fun target_NET_001_05_tls_transcript_binding () Bool)
(assert (= source_NET_001_05_tls_transcript_binding target_NET_001_05_tls_transcript_binding))

; NET_001_06_tls_0rtt_replay_safe: translation preserves property (matches Coq: Theorem)
(declare-fun source_NET_001_06_tls_0rtt_replay_safe () Bool)
(declare-fun target_NET_001_06_tls_0rtt_replay_safe () Bool)
(assert (= source_NET_001_06_tls_0rtt_replay_safe target_NET_001_06_tls_0rtt_replay_safe))

; NET_001_07_tls_certificate_chain_valid: translation preserves property (matches Coq: Theorem)
(declare-fun source_NET_001_07_tls_certificate_chain_valid () Bool)
(declare-fun target_NET_001_07_tls_certificate_chain_valid () Bool)
(assert (= source_NET_001_07_tls_certificate_chain_valid target_NET_001_07_tls_certificate_chain_valid))

; NET_001_08_tls_cipher_strength: translation preserves property (matches Coq: Theorem)
(declare-fun source_NET_001_08_tls_cipher_strength () Bool)
(declare-fun target_NET_001_08_tls_cipher_strength () Bool)
(assert (= source_NET_001_08_tls_cipher_strength target_NET_001_08_tls_cipher_strength))

; NET_001_09_tls_no_truncation: translation preserves property (matches Coq: Theorem)
(declare-fun source_NET_001_09_tls_no_truncation () Bool)
(declare-fun target_NET_001_09_tls_no_truncation () Bool)
(assert (= source_NET_001_09_tls_no_truncation target_NET_001_09_tls_no_truncation))

; NET_001_10_tls_channel_binding: translation preserves property (matches Coq: Theorem)
(declare-fun source_NET_001_10_tls_channel_binding () Bool)
(declare-fun target_NET_001_10_tls_channel_binding () Bool)
(assert (= source_NET_001_10_tls_channel_binding target_NET_001_10_tls_channel_binding))

; NET_001_11_tcp_state_machine_correct: translation preserves property (matches Coq: Theorem)
(declare-fun source_NET_001_11_tcp_state_machine_correct () Bool)
(declare-fun target_NET_001_11_tcp_state_machine_correct () Bool)
(assert (= source_NET_001_11_tcp_state_machine_correct target_NET_001_11_tcp_state_machine_correct))

; NET_001_12_tcp_seq_unpredictable: translation preserves property (matches Coq: Theorem)
(declare-fun source_NET_001_12_tcp_seq_unpredictable () Bool)
(declare-fun target_NET_001_12_tcp_seq_unpredictable () Bool)
(assert (= source_NET_001_12_tcp_seq_unpredictable target_NET_001_12_tcp_seq_unpredictable))

; NET_001_13_tcp_no_injection: translation preserves property (matches Coq: Theorem)
(declare-fun source_NET_001_13_tcp_no_injection () Bool)
(declare-fun target_NET_001_13_tcp_no_injection () Bool)
(assert (= source_NET_001_13_tcp_no_injection target_NET_001_13_tcp_no_injection))

; NET_001_14_tcp_flow_control_correct: translation preserves property (matches Coq: Theorem)
(declare-fun source_NET_001_14_tcp_flow_control_correct () Bool)
(declare-fun target_NET_001_14_tcp_flow_control_correct () Bool)
(assert (= source_NET_001_14_tcp_flow_control_correct target_NET_001_14_tcp_flow_control_correct))

; NET_001_15_ip_frag_reassembly_safe: translation preserves property (matches Coq: Theorem)
(declare-fun source_NET_001_15_ip_frag_reassembly_safe () Bool)
(declare-fun target_NET_001_15_ip_frag_reassembly_safe () Bool)
(assert (= source_NET_001_15_ip_frag_reassembly_safe target_NET_001_15_ip_frag_reassembly_safe))

; NET_001_16_ip_no_overlapping_fragments: translation preserves property (matches Coq: Theorem)
(declare-fun source_NET_001_16_ip_no_overlapping_fragments () Bool)
(declare-fun target_NET_001_16_ip_no_overlapping_fragments () Bool)
(assert (= source_NET_001_16_ip_no_overlapping_fragments target_NET_001_16_ip_no_overlapping_fragments))

; NET_001_17_icmp_rate_limited: translation preserves property (matches Coq: Theorem)
(declare-fun source_NET_001_17_icmp_rate_limited () Bool)
(declare-fun target_NET_001_17_icmp_rate_limited () Bool)
(assert (= source_NET_001_17_icmp_rate_limited target_NET_001_17_icmp_rate_limited))

; NET_001_18_ip_routing_correct: translation preserves property (matches Coq: Theorem)
(declare-fun source_NET_001_18_ip_routing_correct () Bool)
(declare-fun target_NET_001_18_ip_routing_correct () Bool)
(assert (= source_NET_001_18_ip_routing_correct target_NET_001_18_ip_routing_correct))

; NET_001_19_dnssec_chain_valid: translation preserves property (matches Coq: Theorem)
(declare-fun source_NET_001_19_dnssec_chain_valid () Bool)
(declare-fun target_NET_001_19_dnssec_chain_valid () Bool)
(assert (= source_NET_001_19_dnssec_chain_valid target_NET_001_19_dnssec_chain_valid))

; NET_001_20_dns_cache_safe: translation preserves property (matches Coq: Theorem)
(declare-fun source_NET_001_20_dns_cache_safe () Bool)
(declare-fun target_NET_001_20_dns_cache_safe () Bool)
(assert (= source_NET_001_20_dns_cache_safe target_NET_001_20_dns_cache_safe))

; NET_001_21_dns_no_rebinding: translation preserves property (matches Coq: Theorem)
(declare-fun source_NET_001_21_dns_no_rebinding () Bool)
(declare-fun target_NET_001_21_dns_no_rebinding () Bool)
(assert (= source_NET_001_21_dns_no_rebinding target_NET_001_21_dns_no_rebinding))

; NET_001_22_dns_query_integrity: translation preserves property (matches Coq: Theorem)
(declare-fun source_NET_001_22_dns_query_integrity () Bool)
(declare-fun target_NET_001_22_dns_query_integrity () Bool)
(assert (= source_NET_001_22_dns_query_integrity target_NET_001_22_dns_query_integrity))

; NET_001_23_dns_response_authentic: translation preserves property (matches Coq: Theorem)
(declare-fun source_NET_001_23_dns_response_authentic () Bool)
(declare-fun target_NET_001_23_dns_response_authentic () Bool)
(assert (= source_NET_001_23_dns_response_authentic target_NET_001_23_dns_response_authentic))

; NET_001_24_dns_no_amplification: translation preserves property (matches Coq: Theorem)
(declare-fun source_NET_001_24_dns_no_amplification () Bool)
(declare-fun target_NET_001_24_dns_no_amplification () Bool)
(assert (= source_NET_001_24_dns_no_amplification target_NET_001_24_dns_no_amplification))

; NET_001_25_doh_confidential: translation preserves property (matches Coq: Theorem)
(declare-fun source_NET_001_25_doh_confidential () Bool)
(declare-fun target_NET_001_25_doh_confidential () Bool)
(assert (= source_NET_001_25_doh_confidential target_NET_001_25_doh_confidential))

; Verify all translation validations are satisfiable
(check-sat)
(exit)
